0 0 0 0
0 1 2 0
0 2 0 0
0 3 0 0
0 4 0 5
0 5 0 6
0 6 0 9
0 7 0 5
0 8 0 8
0 9 1 8
0 10 0 9
0 11 0 5
0 12 0 9
0 13 0 1
0 14 0 7
0 15 0 10
0 16 0 12
0 17 0 9
0 18 0 10
0 19 0 11
0 20 1 11
0 21 1 15
0 22 0 14
0 23 1 18
0 24 0 18
0 25 1 14
0 26 1 10
0 27 0 20
0 28 0 19
0 29 0 22
0 30 1 21
0 31 0 24
